
        $ From http://www.csplib.org/Problems/prob009/data/helmut.pdf
        $ Problem number 119
        $ Sequence length : 25
        language ESSENCE' 1.0
        letting sizemaster be 392
        letting sizes be sequence(4,7,8,15,23,26,29,30,31,32,34,43,48,55,56,68,77,88,98,106,116,135,141,151,153)
        